row=6;
column=6;
left=[12, 6, 11, 15, 14, 9];
right=[11, 12, 15, 6, 0, 0];
top=[0, 0, 18, 13, 6, 0];
bottom=[19, 0, 0, 11, 15, 0];
Board=[|2,4,0,0,6,0|0,0,4,0,0,1|5,0,1,0,3,0|4,0,5,0,0,0|0,0,0,0,0,0|1,0,6,0,0,0|]